p cnf 7230 15
-3008 -3536 4111 0
3008 -4111 0
3480 -4117 0
-1752 -3480 4114 0
-3012 -3538 -4112 0
1752 -4117 0
3012 -4113 0
-4116 4117 0
-4115 4116 0
-4114 4115 0
4112 4113 0
3538 -4113 0
4110 4111 0
-4110 -4111 0
3480 -4119 0
